resources/model.lp
\ENCODING=ISO-8859-1
\Problem name: ilog.cplex

Minimize
 obj: - x - y
Subject To
 blah: x - y = 0
Bounds
 0 <= x <= 1
 0.2 <= y <= 1
Generals
 x
Semi-Continuous
 y
End
