rust/resources/mps/model.mps
NAME        model
ROWS
 N  obj
 E  blah
COLUMNS
    MARK0000  'MARKER'                 'INTORG'
    x         obj       -1
    x         blah      1
    MARK0001  'MARKER'                 'INTEND'
    y         obj       -1
    y         blah      -1
RHS
BOUNDS
 BV BOUND     x
 LO BOUND     y         0.2
 SC BOUND     y         1
ENDATA
